p cnf 292 1431
c p weight 26 0 0
c p weight -26 1 0
c p weight 27 1 0
c p weight -27 1 0
c p weight 34 0 0
c p weight -34 1 0
c p weight 35 1 0
c p weight -35 1 0
c p weight 42 0 0
c p weight -42 1 0
c p weight 43 1 0
c p weight -43 1 0
c p weight 53 0 0
c p weight -53 1 0
c p weight 54 1 0
c p weight -54 1 0
c p weight 61 0 0
c p weight -61 1 0
c p weight 62 1 0
c p weight -62 1 0
c p weight 69 0 0
c p weight -69 1 0
c p weight 70 1 0
c p weight -70 1 0
c p weight 77 0 0
c p weight -77 1 0
c p weight 78 1 0
c p weight -78 1 0
c p weight 88 0 0
c p weight -88 1 0
c p weight 89 1 0
c p weight -89 1 0
c p weight 96 0 0
c p weight -96 1 0
c p weight 97 1 0
c p weight -97 1 0
c p weight 104 0 0
c p weight -104 1 0
c p weight 105 1 0
c p weight -105 1 0
c p weight 115 0 0
c p weight -115 1 0
c p weight 116 1 0
c p weight -116 1 0
c p weight 123 0 0
c p weight -123 1 0
c p weight 124 1 0
c p weight -124 1 0
c p weight 131 0 0
c p weight -131 1 0
c p weight 132 1 0
c p weight -132 1 0
c p weight 139 0 0
c p weight -139 1 0
c p weight 140 1 0
c p weight -140 1 0
c p weight 150 0 0
c p weight -150 1 0
c p weight 151 1 0
c p weight -151 1 0
c p weight 158 0 0
c p weight -158 1 0
c p weight 159 1 0
c p weight -159 1 0
c p weight 169 0 0
c p weight -169 1 0
c p weight 170 1 0
c p weight -170 1 0
c p weight 177 0 0
c p weight -177 1 0
c p weight 178 1 0
c p weight -178 1 0
c p weight 185 0 0
c p weight -185 1 0
c p weight 186 1 0
c p weight -186 1 0
c p weight 196 0 0
c p weight -196 1 0
c p weight 197 1 0
c p weight -197 1 0
c p weight 204 0 0
c p weight -204 1 0
c p weight 205 1 0
c p weight -205 1 0
c p weight 212 0 0
c p weight -212 1 0
c p weight 213 1 0
c p weight -213 1 0
c p weight 223 0 0
c p weight -223 1 0
c p weight 224 1 0
c p weight -224 1 0
c p weight 231 0 0
c p weight -231 1 0
c p weight 232 1 0
c p weight -232 1 0
c p weight 242 0 0
c p weight -242 1 0
c p weight 243 1 0
c p weight -243 1 0
c p weight 250 0 0
c p weight -250 1 0
c p weight 251 1 0
c p weight -251 1 0
c p weight 258 0 0
c p weight -258 1 0
c p weight 259 1 0
c p weight -259 1 0
c p weight 269 0 0
c p weight -269 1 0
c p weight 270 1 0
c p weight -270 1 0
c p weight 277 0 0
c p weight -277 1 0
c p weight 278 1 0
c p weight -278 1 0
c p weight 288 0 0
c p weight -288 1 0
c p weight 289 1 0
c p weight -289 1 0
c p weight 290 -1 0
c p weight -290 1 0
c p weight 292 0.5 0
292 0
-21 0
-19 0
-17 0
-15 0
-13 0
-11 0
-9 0
-7 0
-5 0
-3 0
-1 0
22 -21 1 0
22 -21 2 0
-22 21 1 0
-22 21 2 0
22 21 -1 -2 0
-22 -21 -1 -2 0
23 1 -2 0
23 -1 2 0
-23 1 2 0
-23 -1 -2 0
24 25 -22 0
24 -22 23 0
-24 25 22 0
-24 22 23 0
24 -22 -1 0
-24 22 -1 0
24 -25 22 1 -23 0
-24 -25 -22 1 -23 0
25 -1 23 0
-25 1 23 0
-26 23 0
25 -26 -1 0
-25 -26 1 0
25 26 1 -23 0
-25 26 -1 -23 0
-27 23 0
25 -27 1 0
-25 -27 -1 0
25 27 -1 -23 0
-25 27 1 -23 0
28 -24 25 0
28 -24 23 0
-28 24 25 0
-28 24 23 0
28 24 -25 -23 0
-28 -24 -25 -23 0
29 25 -23 0
29 -25 23 0
-29 25 23 0
-29 -25 -23 0
30 -28 3 0
30 -28 4 0
-30 28 3 0
-30 28 4 0
30 28 -3 -4 0
-30 -28 -3 -4 0
31 3 -4 0
31 -3 4 0
-31 3 4 0
-31 -3 -4 0
32 33 -30 0
32 -30 31 0
-32 33 30 0
-32 30 31 0
32 -30 -3 0
-32 30 -3 0
32 -33 30 3 -31 0
-32 -33 -30 3 -31 0
33 -3 31 0
-33 3 31 0
-34 31 0
33 -34 -3 0
-33 -34 3 0
33 34 3 -31 0
-33 34 -3 -31 0
-35 31 0
33 -35 3 0
-33 -35 -3 0
33 35 -3 -31 0
-33 35 3 -31 0
36 -32 33 0
36 -32 31 0
-36 32 33 0
-36 32 31 0
36 32 -33 -31 0
-36 -32 -33 -31 0
37 33 -31 0
37 -33 31 0
-37 33 31 0
-37 -33 -31 0
38 -36 33 0
38 -36 37 0
-38 36 33 0
-38 36 37 0
38 36 -33 -37 0
-38 -36 -33 -37 0
39 33 -37 0
39 -33 37 0
-39 33 37 0
-39 -33 -37 0
40 41 -38 0
40 -38 39 0
-40 41 38 0
-40 38 39 0
40 -38 -33 0
-40 38 -33 0
40 -41 38 33 -39 0
-40 -41 -38 33 -39 0
41 -33 39 0
-41 33 39 0
-42 39 0
41 -42 -33 0
-41 -42 33 0
41 42 33 -39 0
-41 42 -33 -39 0
-43 39 0
41 -43 33 0
-41 -43 -33 0
41 43 -33 -39 0
-41 43 33 -39 0
44 -40 41 0
44 -40 39 0
-44 40 41 0
-44 40 39 0
44 40 -41 -39 0
-44 -40 -41 -39 0
45 41 -39 0
45 -41 39 0
-45 41 39 0
-45 -41 -39 0
46 -44 25 0
46 -44 45 0
-46 44 25 0
-46 44 45 0
46 -44 41 -29 0
46 -44 -41 29 0
-46 44 41 -29 0
-46 44 -41 29 0
46 44 -25 41 29 -45 0
46 44 -25 -41 -29 -45 0
-46 -44 -25 41 29 -45 0
-46 -44 -25 -41 -29 -45 0
48 25 -41 0
48 -25 41 0
-48 25 41 0
-48 -25 -41 0
47 29 -45 0
47 -29 45 0
-47 29 45 0
-47 -29 -45 0
49 -46 48 0
49 -46 45 0
-49 46 48 0
-49 46 45 0
49 46 -48 -45 0
-49 -46 -48 -45 0
50 48 -45 0
50 -48 45 0
-50 48 45 0
-50 -48 -45 0
51 52 -49 0
51 -49 50 0
-51 52 49 0
-51 49 50 0
51 -49 -48 0
-51 49 -48 0
51 -52 49 48 -50 0
-51 -52 -49 48 -50 0
52 -48 50 0
-52 48 50 0
-53 50 0
52 -53 -48 0
-52 -53 48 0
52 53 48 -50 0
-52 53 -48 -50 0
-54 50 0
52 -54 48 0
-52 -54 -48 0
52 54 -48 -50 0
-52 54 48 -50 0
55 -51 52 0
55 -51 50 0
-55 51 52 0
-55 51 50 0
55 51 -52 -50 0
-55 -51 -52 -50 0
56 52 -50 0
56 -52 50 0
-56 52 50 0
-56 -52 -50 0
57 -55 5 0
57 -55 6 0
-57 55 5 0
-57 55 6 0
57 55 -5 -6 0
-57 -55 -5 -6 0
58 5 -6 0
58 -5 6 0
-58 5 6 0
-58 -5 -6 0
59 60 -57 0
59 -57 58 0
-59 60 57 0
-59 57 58 0
59 -57 -5 0
-59 57 -5 0
59 -60 57 5 -58 0
-59 -60 -57 5 -58 0
60 -5 58 0
-60 5 58 0
-61 58 0
60 -61 -5 0
-60 -61 5 0
60 61 5 -58 0
-60 61 -5 -58 0
-62 58 0
60 -62 5 0
-60 -62 -5 0
60 62 -5 -58 0
-60 62 5 -58 0
63 -59 60 0
63 -59 58 0
-63 59 60 0
-63 59 58 0
63 59 -60 -58 0
-63 -59 -60 -58 0
64 60 -58 0
64 -60 58 0
-64 60 58 0
-64 -60 -58 0
65 -63 7 0
65 -63 8 0
-65 63 7 0
-65 63 8 0
65 63 -7 -8 0
-65 -63 -7 -8 0
66 7 -8 0
66 -7 8 0
-66 7 8 0
-66 -7 -8 0
67 68 -65 0
67 -65 66 0
-67 68 65 0
-67 65 66 0
67 -65 -7 0
-67 65 -7 0
67 -68 65 7 -66 0
-67 -68 -65 7 -66 0
68 -7 66 0
-68 7 66 0
-69 66 0
68 -69 -7 0
-68 -69 7 0
68 69 7 -66 0
-68 69 -7 -66 0
-70 66 0
68 -70 7 0
-68 -70 -7 0
68 70 -7 -66 0
-68 70 7 -66 0
71 -67 68 0
71 -67 66 0
-71 67 68 0
-71 67 66 0
71 67 -68 -66 0
-71 -67 -68 -66 0
72 68 -66 0
72 -68 66 0
-72 68 66 0
-72 -68 -66 0
73 -71 68 0
73 -71 72 0
-73 71 68 0
-73 71 72 0
73 71 -68 -72 0
-73 -71 -68 -72 0
74 68 -72 0
74 -68 72 0
-74 68 72 0
-74 -68 -72 0
75 76 -73 0
75 -73 74 0
-75 76 73 0
-75 73 74 0
75 -73 -68 0
-75 73 -68 0
75 -76 73 68 -74 0
-75 -76 -73 68 -74 0
76 -68 74 0
-76 68 74 0
-77 74 0
76 -77 -68 0
-76 -77 68 0
76 77 68 -74 0
-76 77 -68 -74 0
-78 74 0
76 -78 68 0
-76 -78 -68 0
76 78 -68 -74 0
-76 78 68 -74 0
79 -75 76 0
79 -75 74 0
-79 75 76 0
-79 75 74 0
79 75 -76 -74 0
-79 -75 -76 -74 0
80 76 -74 0
80 -76 74 0
-80 76 74 0
-80 -76 -74 0
81 -79 60 0
81 -79 80 0
-81 79 60 0
-81 79 80 0
81 -79 76 -64 0
81 -79 -76 64 0
-81 79 76 -64 0
-81 79 -76 64 0
81 79 -60 76 64 -80 0
81 79 -60 -76 -64 -80 0
-81 -79 -60 76 64 -80 0
-81 -79 -60 -76 -64 -80 0
83 60 -76 0
83 -60 76 0
-83 60 76 0
-83 -60 -76 0
82 64 -80 0
82 -64 80 0
-82 64 80 0
-82 -64 -80 0
84 -81 83 0
84 -81 80 0
-84 81 83 0
-84 81 80 0
84 81 -83 -80 0
-84 -81 -83 -80 0
85 83 -80 0
85 -83 80 0
-85 83 80 0
-85 -83 -80 0
86 87 -84 0
86 -84 85 0
-86 87 84 0
-86 84 85 0
86 -84 -83 0
-86 84 -83 0
86 -87 84 83 -85 0
-86 -87 -84 83 -85 0
87 -83 85 0
-87 83 85 0
-88 85 0
87 -88 -83 0
-87 -88 83 0
87 88 83 -85 0
-87 88 -83 -85 0
-89 85 0
87 -89 83 0
-87 -89 -83 0
87 89 -83 -85 0
-87 89 83 -85 0
90 -86 87 0
90 -86 85 0
-90 86 87 0
-90 86 85 0
90 86 -87 -85 0
-90 -86 -87 -85 0
91 87 -85 0
91 -87 85 0
-91 87 85 0
-91 -87 -85 0
92 -90 9 0
92 -90 10 0
-92 90 9 0
-92 90 10 0
92 90 -9 -10 0
-92 -90 -9 -10 0
93 9 -10 0
93 -9 10 0
-93 9 10 0
-93 -9 -10 0
94 95 -92 0
94 -92 93 0
-94 95 92 0
-94 92 93 0
94 -92 -9 0
-94 92 -9 0
94 -95 92 9 -93 0
-94 -95 -92 9 -93 0
95 -9 93 0
-95 9 93 0
-96 93 0
95 -96 -9 0
-95 -96 9 0
95 96 9 -93 0
-95 96 -9 -93 0
-97 93 0
95 -97 9 0
-95 -97 -9 0
95 97 -9 -93 0
-95 97 9 -93 0
98 -94 95 0
98 -94 93 0
-98 94 95 0
-98 94 93 0
98 94 -95 -93 0
-98 -94 -95 -93 0
99 95 -93 0
99 -95 93 0
-99 95 93 0
-99 -95 -93 0
100 -98 95 0
100 -98 99 0
-100 98 95 0
-100 98 99 0
100 98 -95 -99 0
-100 -98 -95 -99 0
101 95 -99 0
101 -95 99 0
-101 95 99 0
-101 -95 -99 0
102 103 -100 0
102 -100 101 0
-102 103 100 0
-102 100 101 0
102 -100 -95 0
-102 100 -95 0
102 -103 100 95 -101 0
-102 -103 -100 95 -101 0
103 -95 101 0
-103 95 101 0
-104 101 0
103 -104 -95 0
-103 -104 95 0
103 104 95 -101 0
-103 104 -95 -101 0
-105 101 0
103 -105 95 0
-103 -105 -95 0
103 105 -95 -101 0
-103 105 95 -101 0
106 -102 103 0
106 -102 101 0
-106 102 103 0
-106 102 101 0
106 102 -103 -101 0
-106 -102 -103 -101 0
107 103 -101 0
107 -103 101 0
-107 103 101 0
-107 -103 -101 0
108 -106 87 0
108 -106 107 0
-108 106 87 0
-108 106 107 0
108 -106 103 -91 0
108 -106 -103 91 0
-108 106 103 -91 0
-108 106 -103 91 0
108 106 -87 103 91 -107 0
108 106 -87 -103 -91 -107 0
-108 -106 -87 103 91 -107 0
-108 -106 -87 -103 -91 -107 0
110 87 -103 0
110 -87 103 0
-110 87 103 0
-110 -87 -103 0
109 91 -107 0
109 -91 107 0
-109 91 107 0
-109 -91 -107 0
111 -108 110 0
111 -108 107 0
-111 108 110 0
-111 108 107 0
111 108 -110 -107 0
-111 -108 -110 -107 0
112 110 -107 0
112 -110 107 0
-112 110 107 0
-112 -110 -107 0
113 114 -111 0
113 -111 112 0
-113 114 111 0
-113 111 112 0
113 -111 -110 0
-113 111 -110 0
113 -114 111 110 -112 0
-113 -114 -111 110 -112 0
114 -110 112 0
-114 110 112 0
-115 112 0
114 -115 -110 0
-114 -115 110 0
114 115 110 -112 0
-114 115 -110 -112 0
-116 112 0
114 -116 110 0
-114 -116 -110 0
114 116 -110 -112 0
-114 116 110 -112 0
117 -113 114 0
117 -113 112 0
-117 113 114 0
-117 113 112 0
117 113 -114 -112 0
-117 -113 -114 -112 0
118 114 -112 0
118 -114 112 0
-118 114 112 0
-118 -114 -112 0
119 -117 11 0
119 -117 12 0
-119 117 11 0
-119 117 12 0
119 117 -11 -12 0
-119 -117 -11 -12 0
120 11 -12 0
120 -11 12 0
-120 11 12 0
-120 -11 -12 0
121 122 -119 0
121 -119 120 0
-121 122 119 0
-121 119 120 0
121 -119 -11 0
-121 119 -11 0
121 -122 119 11 -120 0
-121 -122 -119 11 -120 0
122 -11 120 0
-122 11 120 0
-123 120 0
122 -123 -11 0
-122 -123 11 0
122 123 11 -120 0
-122 123 -11 -120 0
-124 120 0
122 -124 11 0
-122 -124 -11 0
122 124 -11 -120 0
-122 124 11 -120 0
125 -121 122 0
125 -121 120 0
-125 121 122 0
-125 121 120 0
125 121 -122 -120 0
-125 -121 -122 -120 0
126 122 -120 0
126 -122 120 0
-126 122 120 0
-126 -122 -120 0
127 -125 13 0
127 -125 14 0
-127 125 13 0
-127 125 14 0
127 125 -13 -14 0
-127 -125 -13 -14 0
128 13 -14 0
128 -13 14 0
-128 13 14 0
-128 -13 -14 0
129 130 -127 0
129 -127 128 0
-129 130 127 0
-129 127 128 0
129 -127 -13 0
-129 127 -13 0
129 -130 127 13 -128 0
-129 -130 -127 13 -128 0
130 -13 128 0
-130 13 128 0
-131 128 0
130 -131 -13 0
-130 -131 13 0
130 131 13 -128 0
-130 131 -13 -128 0
-132 128 0
130 -132 13 0
-130 -132 -13 0
130 132 -13 -128 0
-130 132 13 -128 0
133 -129 130 0
133 -129 128 0
-133 129 130 0
-133 129 128 0
133 129 -130 -128 0
-133 -129 -130 -128 0
134 130 -128 0
134 -130 128 0
-134 130 128 0
-134 -130 -128 0
135 -133 130 0
135 -133 134 0
-135 133 130 0
-135 133 134 0
135 133 -130 -134 0
-135 -133 -130 -134 0
136 130 -134 0
136 -130 134 0
-136 130 134 0
-136 -130 -134 0
137 138 -135 0
137 -135 136 0
-137 138 135 0
-137 135 136 0
137 -135 -130 0
-137 135 -130 0
137 -138 135 130 -136 0
-137 -138 -135 130 -136 0
138 -130 136 0
-138 130 136 0
-139 136 0
138 -139 -130 0
-138 -139 130 0
138 139 130 -136 0
-138 139 -130 -136 0
-140 136 0
138 -140 130 0
-138 -140 -130 0
138 140 -130 -136 0
-138 140 130 -136 0
141 -137 138 0
141 -137 136 0
-141 137 138 0
-141 137 136 0
141 137 -138 -136 0
-141 -137 -138 -136 0
142 138 -136 0
142 -138 136 0
-142 138 136 0
-142 -138 -136 0
143 -141 114 0
143 -141 142 0
-143 141 114 0
-143 141 142 0
143 -141 138 -118 0
143 -141 -138 118 0
-143 141 138 -118 0
-143 141 -138 118 0
143 141 -114 138 118 -142 0
143 141 -114 -138 -118 -142 0
-143 -141 -114 138 118 -142 0
-143 -141 -114 -138 -118 -142 0
145 114 -138 0
145 -114 138 0
-145 114 138 0
-145 -114 -138 0
144 118 -142 0
144 -118 142 0
-144 118 142 0
-144 -118 -142 0
146 -143 145 0
146 -143 142 0
-146 143 145 0
-146 143 142 0
146 143 -145 -142 0
-146 -143 -145 -142 0
147 145 -142 0
147 -145 142 0
-147 145 142 0
-147 -145 -142 0
148 149 -146 0
148 -146 147 0
-148 149 146 0
-148 146 147 0
148 -146 -145 0
-148 146 -145 0
148 -149 146 145 -147 0
-148 -149 -146 145 -147 0
149 -145 147 0
-149 145 147 0
-150 147 0
149 -150 -145 0
-149 -150 145 0
149 150 145 -147 0
-149 150 -145 -147 0
-151 147 0
149 -151 145 0
-149 -151 -145 0
149 151 -145 -147 0
-149 151 145 -147 0
152 -148 149 0
152 -148 147 0
-152 148 149 0
-152 148 147 0
152 148 -149 -147 0
-152 -148 -149 -147 0
153 149 -147 0
153 -149 147 0
-153 149 147 0
-153 -149 -147 0
154 -152 149 0
154 -152 153 0
-154 152 149 0
-154 152 153 0
154 152 -149 -153 0
-154 -152 -149 -153 0
155 149 -153 0
155 -149 153 0
-155 149 153 0
-155 -149 -153 0
156 157 -154 0
156 -154 155 0
-156 157 154 0
-156 154 155 0
156 -154 -149 0
-156 154 -149 0
156 -157 154 149 -155 0
-156 -157 -154 149 -155 0
157 -149 155 0
-157 149 155 0
-158 155 0
157 -158 -149 0
-157 -158 149 0
157 158 149 -155 0
-157 158 -149 -155 0
-159 155 0
157 -159 149 0
-157 -159 -149 0
157 159 -149 -155 0
-157 159 149 -155 0
160 -156 157 0
160 -156 155 0
-160 156 157 0
-160 156 155 0
160 156 -157 -155 0
-160 -156 -157 -155 0
161 157 -155 0
161 -157 155 0
-161 157 155 0
-161 -157 -155 0
162 -160 122 0
162 -160 161 0
-162 160 122 0
-162 160 161 0
162 -160 157 -126 0
162 -160 -157 126 0
-162 160 157 -126 0
-162 160 -157 126 0
162 160 -122 157 126 -161 0
162 160 -122 -157 -126 -161 0
-162 -160 -122 157 126 -161 0
-162 -160 -122 -157 -126 -161 0
164 122 -157 0
164 -122 157 0
-164 122 157 0
-164 -122 -157 0
163 126 -161 0
163 -126 161 0
-163 126 161 0
-163 -126 -161 0
165 -162 164 0
165 -162 161 0
-165 162 164 0
-165 162 161 0
165 162 -164 -161 0
-165 -162 -164 -161 0
166 164 -161 0
166 -164 161 0
-166 164 161 0
-166 -164 -161 0
167 168 -165 0
167 -165 166 0
-167 168 165 0
-167 165 166 0
167 -165 -164 0
-167 165 -164 0
167 -168 165 164 -166 0
-167 -168 -165 164 -166 0
168 -164 166 0
-168 164 166 0
-169 166 0
168 -169 -164 0
-168 -169 164 0
168 169 164 -166 0
-168 169 -164 -166 0
-170 166 0
168 -170 164 0
-168 -170 -164 0
168 170 -164 -166 0
-168 170 164 -166 0
171 -167 168 0
171 -167 166 0
-171 167 168 0
-171 167 166 0
171 167 -168 -166 0
-171 -167 -168 -166 0
172 168 -166 0
172 -168 166 0
-172 168 166 0
-172 -168 -166 0
173 -171 15 0
173 -171 16 0
-173 171 15 0
-173 171 16 0
173 171 -15 -16 0
-173 -171 -15 -16 0
174 15 -16 0
174 -15 16 0
-174 15 16 0
-174 -15 -16 0
175 176 -173 0
175 -173 174 0
-175 176 173 0
-175 173 174 0
175 -173 -15 0
-175 173 -15 0
175 -176 173 15 -174 0
-175 -176 -173 15 -174 0
176 -15 174 0
-176 15 174 0
-177 174 0
176 -177 -15 0
-176 -177 15 0
176 177 15 -174 0
-176 177 -15 -174 0
-178 174 0
176 -178 15 0
-176 -178 -15 0
176 178 -15 -174 0
-176 178 15 -174 0
179 -175 176 0
179 -175 174 0
-179 175 176 0
-179 175 174 0
179 175 -176 -174 0
-179 -175 -176 -174 0
180 176 -174 0
180 -176 174 0
-180 176 174 0
-180 -176 -174 0
181 -179 176 0
181 -179 180 0
-181 179 176 0
-181 179 180 0
181 179 -176 -180 0
-181 -179 -176 -180 0
182 176 -180 0
182 -176 180 0
-182 176 180 0
-182 -176 -180 0
183 184 -181 0
183 -181 182 0
-183 184 181 0
-183 181 182 0
183 -181 -176 0
-183 181 -176 0
183 -184 181 176 -182 0
-183 -184 -181 176 -182 0
184 -176 182 0
-184 176 182 0
-185 182 0
184 -185 -176 0
-184 -185 176 0
184 185 176 -182 0
-184 185 -176 -182 0
-186 182 0
184 -186 176 0
-184 -186 -176 0
184 186 -176 -182 0
-184 186 176 -182 0
187 -183 184 0
187 -183 182 0
-187 183 184 0
-187 183 182 0
187 183 -184 -182 0
-187 -183 -184 -182 0
188 184 -182 0
188 -184 182 0
-188 184 182 0
-188 -184 -182 0
189 -187 122 0
189 -187 188 0
-189 187 122 0
-189 187 188 0
189 -187 184 -163 0
189 -187 -184 163 0
-189 187 184 -163 0
-189 187 -184 163 0
189 187 -122 184 163 -188 0
189 187 -122 -184 -163 -188 0
-189 -187 -122 184 163 -188 0
-189 -187 -122 -184 -163 -188 0
191 122 -184 0
191 -122 184 0
-191 122 184 0
-191 -122 -184 0
190 163 -188 0
190 -163 188 0
-190 163 188 0
-190 -163 -188 0
192 -189 191 0
192 -189 188 0
-192 189 191 0
-192 189 188 0
192 189 -191 -188 0
-192 -189 -191 -188 0
193 191 -188 0
193 -191 188 0
-193 191 188 0
-193 -191 -188 0
194 195 -192 0
194 -192 193 0
-194 195 192 0
-194 192 193 0
194 -192 -191 0
-194 192 -191 0
194 -195 192 191 -193 0
-194 -195 -192 191 -193 0
195 -191 193 0
-195 191 193 0
-196 193 0
195 -196 -191 0
-195 -196 191 0
195 196 191 -193 0
-195 196 -191 -193 0
-197 193 0
195 -197 191 0
-195 -197 -191 0
195 197 -191 -193 0
-195 197 191 -193 0
198 -194 195 0
198 -194 193 0
-198 194 195 0
-198 194 193 0
198 194 -195 -193 0
-198 -194 -195 -193 0
199 195 -193 0
199 -195 193 0
-199 195 193 0
-199 -195 -193 0
200 -198 17 0
200 -198 18 0
-200 198 17 0
-200 198 18 0
200 198 -17 -18 0
-200 -198 -17 -18 0
201 17 -18 0
201 -17 18 0
-201 17 18 0
-201 -17 -18 0
202 203 -200 0
202 -200 201 0
-202 203 200 0
-202 200 201 0
202 -200 -17 0
-202 200 -17 0
202 -203 200 17 -201 0
-202 -203 -200 17 -201 0
203 -17 201 0
-203 17 201 0
-204 201 0
203 -204 -17 0
-203 -204 17 0
203 204 17 -201 0
-203 204 -17 -201 0
-205 201 0
203 -205 17 0
-203 -205 -17 0
203 205 -17 -201 0
-203 205 17 -201 0
206 -202 203 0
206 -202 201 0
-206 202 203 0
-206 202 201 0
206 202 -203 -201 0
-206 -202 -203 -201 0
207 203 -201 0
207 -203 201 0
-207 203 201 0
-207 -203 -201 0
208 -206 203 0
208 -206 207 0
-208 206 203 0
-208 206 207 0
208 206 -203 -207 0
-208 -206 -203 -207 0
209 203 -207 0
209 -203 207 0
-209 203 207 0
-209 -203 -207 0
210 211 -208 0
210 -208 209 0
-210 211 208 0
-210 208 209 0
210 -208 -203 0
-210 208 -203 0
210 -211 208 203 -209 0
-210 -211 -208 203 -209 0
211 -203 209 0
-211 203 209 0
-212 209 0
211 -212 -203 0
-211 -212 203 0
211 212 203 -209 0
-211 212 -203 -209 0
-213 209 0
211 -213 203 0
-211 -213 -203 0
211 213 -203 -209 0
-211 213 203 -209 0
214 -210 211 0
214 -210 209 0
-214 210 211 0
-214 210 209 0
214 210 -211 -209 0
-214 -210 -211 -209 0
215 211 -209 0
215 -211 209 0
-215 211 209 0
-215 -211 -209 0
216 -214 52 0
216 -214 215 0
-216 214 52 0
-216 214 215 0
216 -214 211 -56 0
216 -214 -211 56 0
-216 214 211 -56 0
-216 214 -211 56 0
216 214 -52 211 56 -215 0
216 214 -52 -211 -56 -215 0
-216 -214 -52 211 56 -215 0
-216 -214 -52 -211 -56 -215 0
218 52 -211 0
218 -52 211 0
-218 52 211 0
-218 -52 -211 0
217 56 -215 0
217 -56 215 0
-217 56 215 0
-217 -56 -215 0
219 -216 218 0
219 -216 215 0
-219 216 218 0
-219 216 215 0
219 216 -218 -215 0
-219 -216 -218 -215 0
220 218 -215 0
220 -218 215 0
-220 218 215 0
-220 -218 -215 0
221 222 -219 0
221 -219 220 0
-221 222 219 0
-221 219 220 0
221 -219 -218 0
-221 219 -218 0
221 -222 219 218 -220 0
-221 -222 -219 218 -220 0
222 -218 220 0
-222 218 220 0
-223 220 0
222 -223 -218 0
-222 -223 218 0
222 223 218 -220 0
-222 223 -218 -220 0
-224 220 0
222 -224 218 0
-222 -224 -218 0
222 224 -218 -220 0
-222 224 218 -220 0
225 -221 222 0
225 -221 220 0
-225 221 222 0
-225 221 220 0
225 221 -222 -220 0
-225 -221 -222 -220 0
226 222 -220 0
226 -222 220 0
-226 222 220 0
-226 -222 -220 0
227 -225 222 0
227 -225 226 0
-227 225 222 0
-227 225 226 0
227 225 -222 -226 0
-227 -225 -222 -226 0
228 222 -226 0
228 -222 226 0
-228 222 226 0
-228 -222 -226 0
229 230 -227 0
229 -227 228 0
-229 230 227 0
-229 227 228 0
229 -227 -222 0
-229 227 -222 0
229 -230 227 222 -228 0
-229 -230 -227 222 -228 0
230 -222 228 0
-230 222 228 0
-231 228 0
230 -231 -222 0
-230 -231 222 0
230 231 222 -228 0
-230 231 -222 -228 0
-232 228 0
230 -232 222 0
-230 -232 -222 0
230 232 -222 -228 0
-230 232 222 -228 0
233 -229 230 0
233 -229 228 0
-233 229 230 0
-233 229 228 0
233 229 -230 -228 0
-233 -229 -230 -228 0
234 230 -228 0
234 -230 228 0
-234 230 228 0
-234 -230 -228 0
235 -233 195 0
235 -233 234 0
-235 233 195 0
-235 233 234 0
235 -233 230 -199 0
235 -233 -230 199 0
-235 233 230 -199 0
-235 233 -230 199 0
235 233 -195 230 199 -234 0
235 233 -195 -230 -199 -234 0
-235 -233 -195 230 199 -234 0
-235 -233 -195 -230 -199 -234 0
237 195 -230 0
237 -195 230 0
-237 195 230 0
-237 -195 -230 0
236 199 -234 0
236 -199 234 0
-236 199 234 0
-236 -199 -234 0
238 -235 237 0
238 -235 234 0
-238 235 237 0
-238 235 234 0
238 235 -237 -234 0
-238 -235 -237 -234 0
239 237 -234 0
239 -237 234 0
-239 237 234 0
-239 -237 -234 0
240 241 -238 0
240 -238 239 0
-240 241 238 0
-240 238 239 0
240 -238 -237 0
-240 238 -237 0
240 -241 238 237 -239 0
-240 -241 -238 237 -239 0
241 -237 239 0
-241 237 239 0
-242 239 0
241 -242 -237 0
-241 -242 237 0
241 242 237 -239 0
-241 242 -237 -239 0
-243 239 0
241 -243 237 0
-241 -243 -237 0
241 243 -237 -239 0
-241 243 237 -239 0
244 -240 241 0
244 -240 239 0
-244 240 241 0
-244 240 239 0
244 240 -241 -239 0
-244 -240 -241 -239 0
245 241 -239 0
245 -241 239 0
-245 241 239 0
-245 -241 -239 0
246 -244 19 0
246 -244 20 0
-246 244 19 0
-246 244 20 0
246 244 -19 -20 0
-246 -244 -19 -20 0
247 19 -20 0
247 -19 20 0
-247 19 20 0
-247 -19 -20 0
248 249 -246 0
248 -246 247 0
-248 249 246 0
-248 246 247 0
248 -246 -19 0
-248 246 -19 0
248 -249 246 19 -247 0
-248 -249 -246 19 -247 0
249 -19 247 0
-249 19 247 0
-250 247 0
249 -250 -19 0
-249 -250 19 0
249 250 19 -247 0
-249 250 -19 -247 0
-251 247 0
249 -251 19 0
-249 -251 -19 0
249 251 -19 -247 0
-249 251 19 -247 0
252 -248 249 0
252 -248 247 0
-252 248 249 0
-252 248 247 0
252 248 -249 -247 0
-252 -248 -249 -247 0
253 249 -247 0
253 -249 247 0
-253 249 247 0
-253 -249 -247 0
254 -252 249 0
254 -252 253 0
-254 252 249 0
-254 252 253 0
254 252 -249 -253 0
-254 -252 -249 -253 0
255 249 -253 0
255 -249 253 0
-255 249 253 0
-255 -249 -253 0
256 257 -254 0
256 -254 255 0
-256 257 254 0
-256 254 255 0
256 -254 -249 0
-256 254 -249 0
256 -257 254 249 -255 0
-256 -257 -254 249 -255 0
257 -249 255 0
-257 249 255 0
-258 255 0
257 -258 -249 0
-257 -258 249 0
257 258 249 -255 0
-257 258 -249 -255 0
-259 255 0
257 -259 249 0
-257 -259 -249 0
257 259 -249 -255 0
-257 259 249 -255 0
260 -256 257 0
260 -256 255 0
-260 256 257 0
-260 256 255 0
260 256 -257 -255 0
-260 -256 -257 -255 0
261 257 -255 0
261 -257 255 0
-261 257 255 0
-261 -257 -255 0
262 -260 25 0
262 -260 261 0
-262 260 25 0
-262 260 261 0
262 -260 257 -47 0
262 -260 -257 47 0
-262 260 257 -47 0
-262 260 -257 47 0
262 260 -25 257 47 -261 0
262 260 -25 -257 -47 -261 0
-262 -260 -25 257 47 -261 0
-262 -260 -25 -257 -47 -261 0
264 25 -257 0
264 -25 257 0
-264 25 257 0
-264 -25 -257 0
263 47 -261 0
263 -47 261 0
-263 47 261 0
-263 -47 -261 0
265 -262 264 0
265 -262 261 0
-265 262 264 0
-265 262 261 0
265 262 -264 -261 0
-265 -262 -264 -261 0
266 264 -261 0
266 -264 261 0
-266 264 261 0
-266 -264 -261 0
267 268 -265 0
267 -265 266 0
-267 268 265 0
-267 265 266 0
267 -265 -264 0
-267 265 -264 0
267 -268 265 264 -266 0
-267 -268 -265 264 -266 0
268 -264 266 0
-268 264 266 0
-269 266 0
268 -269 -264 0
-268 -269 264 0
268 269 264 -266 0
-268 269 -264 -266 0
-270 266 0
268 -270 264 0
-268 -270 -264 0
268 270 -264 -266 0
-268 270 264 -266 0
271 -267 268 0
271 -267 266 0
-271 267 268 0
-271 267 266 0
271 267 -268 -266 0
-271 -267 -268 -266 0
272 268 -266 0
272 -268 266 0
-272 268 266 0
-272 -268 -266 0
273 -271 268 0
273 -271 272 0
-273 271 268 0
-273 271 272 0
273 271 -268 -272 0
-273 -271 -268 -272 0
274 268 -272 0
274 -268 272 0
-274 268 272 0
-274 -268 -272 0
275 276 -273 0
275 -273 274 0
-275 276 273 0
-275 273 274 0
275 -273 -268 0
-275 273 -268 0
275 -276 273 268 -274 0
-275 -276 -273 268 -274 0
276 -268 274 0
-276 268 274 0
-277 274 0
276 -277 -268 0
-276 -277 268 0
276 277 268 -274 0
-276 277 -268 -274 0
-278 274 0
276 -278 268 0
-276 -278 -268 0
276 278 -268 -274 0
-276 278 268 -274 0
279 -275 276 0
279 -275 274 0
-279 275 276 0
-279 275 274 0
279 275 -276 -274 0
-279 -275 -276 -274 0
280 276 -274 0
280 -276 274 0
-280 276 274 0
-280 -276 -274 0
281 -279 60 0
281 -279 280 0
-281 279 60 0
-281 279 280 0
281 -279 276 -82 0
281 -279 -276 82 0
-281 279 276 -82 0
-281 279 -276 82 0
281 279 -60 276 82 -280 0
281 279 -60 -276 -82 -280 0
-281 -279 -60 276 82 -280 0
-281 -279 -60 -276 -82 -280 0
283 60 -276 0
283 -60 276 0
-283 60 276 0
-283 -60 -276 0
282 82 -280 0
282 -82 280 0
-282 82 280 0
-282 -82 -280 0
284 -281 283 0
284 -281 280 0
-284 281 283 0
-284 281 280 0
284 281 -283 -280 0
-284 -281 -283 -280 0
285 283 -280 0
285 -283 280 0
-285 283 280 0
-285 -283 -280 0
286 287 -284 0
286 -284 285 0
-286 287 284 0
-286 284 285 0
286 -284 -283 0
-286 284 -283 0
286 -287 284 283 -285 0
-286 -287 -284 283 -285 0
287 -283 285 0
-287 283 285 0
-288 285 0
287 -288 -283 0
-287 -288 283 0
287 288 283 -285 0
-287 288 -283 -285 0
-289 285 0
287 -289 283 0
-287 -289 -283 0
287 289 -283 -285 0
-287 289 283 -285 0
290 -286 287 0
290 -286 285 0
-290 286 287 0
-290 286 285 0
290 286 -287 -285 0
-290 -286 -287 -285 0
291 287 -285 0
291 -287 285 0
-291 287 285 0
-291 -287 -285 0
-25 0
-52 0
-217 0
-60 0
-282 0
-87 0
-109 0
-114 0
-144 0
-122 0
-190 0
-168 0
-172 0
-195 0
-236 0
-241 0
-245 0
-287 0
-291 0
